Tried aggregator 1 time.
LP Presolve eliminated 5 rows and 0 columns.
Reduced LP has 12 rows, 14 columns, and 47 nonzeros.
Presolve time =    0.01 sec.
Initializing dual steep norms . . .

Iteration log . . .
Iteration:     1   Dual objective     =             0.000000
Solution status 1, solution method 2
Objective value 100.
Maximum bound violation =                 0

Elapsed time : 0.000 
